Optimal - objective value -1538.00000000
      4 x_4                        1                 131.875
      9 x_9                        1                  19.875
     11 x_11                       1                       0
     17 x_17                       1                       0
     40 x_40                       1                 -20.125
     41 x_41                       1                     421
     50 x_50                       1                      32
     53 x_53                       1                  44.125
     59 x_59                       1                     -41
     68 x_68                       1                       0
     71 x_71                       1                     -41
     74 x_74                       1                 -25.875
     80 x_80                       1                       0
     95 x_95                       1                     -57
    113 x_113                      1                       0
